10
[[-1, 42178, 18487, 32300, 46216, 0, 0, 0, 0, 13472],[42178, -1, 35491, 0, 36532, 0, 0, 45127, 45923, 25909],[18487, 35491, -1, 0, 23611, 34553, 36487, 25126, 0, 45089],[32300, 0, 0, -1, 24591, 0, 6395, 15960, 40850, 0],[46216, 36532, 23611, 24591, -1, 0, 44341, 31872, 34730, 0],[0, 0, 34553, 0, 0, -1, 42192, 0, 42700, 40459],[0, 0, 36487, 6395, 44341, 42192, -1, 42616, 21922, 44818],[0, 45127, 25126, 15960, 31872, 0, 42616, -1, 0, 0],[0, 45923, 0, 40850, 34730, 42700, 21922, 0, -1, 12407],[13472, 25909, 45089, 0, 0, 40459, 44818, 0, 12407, -1]]